data/solutions/recovery/wellformed/intermediate/binding/wellformed_intermediate_instance84/4.sol
Elapsed time: 0.17
Upper bound: 170791.0
Planning weighted value: 8460171651.0
C[0]=170791.0
C[1]=168887.0
C[2]=167269.0
C[3]=166110.0
C[4]=164026.0
C[5]=163371.0
C[6]=163183.0
C[7]=162595.0
C[8]=161246.0
C[9]=154233.0
C[10]=143791.0
C[11]=142279.0
C[12]=141283.0
C[13]=125854.0
C[14]=0.0
C[15]=0.0
y[0]=0
y[1]=7
y[2]=0
y[3]=2
y[4]=0
y[5]=12
y[6]=13
y[7]=1
y[8]=11
y[9]=2
y[10]=6
y[11]=1
y[12]=4
y[13]=3
y[14]=4
y[15]=0
y[16]=1
y[17]=11
y[18]=11
y[19]=11
y[20]=0
y[21]=0
y[22]=8
y[23]=0
y[24]=2
y[25]=0
y[26]=13
y[27]=12
y[28]=1
y[29]=10
y[30]=5
y[31]=3
y[32]=8
y[33]=1
y[34]=0
y[35]=1
y[36]=6
y[37]=5
y[38]=7
y[39]=12
y[40]=13
y[41]=0
y[42]=0
y[43]=0
y[44]=3
y[45]=9
y[46]=10
y[47]=8
y[48]=2
y[49]=7
y[50]=3
y[51]=9
y[52]=13
y[53]=2
y[54]=10
y[55]=0
y[56]=0
y[57]=0
y[58]=13
y[59]=1
y[60]=0
y[61]=1
y[62]=0
y[63]=0
y[64]=1
y[65]=4
y[66]=5
y[67]=0
y[68]=6
y[69]=0
y[70]=0
y[71]=0
y[72]=10
y[73]=9
y[74]=2
y[75]=0
y[76]=0
y[77]=0
y[78]=12
y[79]=1
y[80]=6
y[81]=1
y[82]=8
y[83]=0
y[84]=12
y[85]=7
y[86]=8
y[87]=7
y[88]=5
y[89]=12
y[90]=0
y[91]=5
y[92]=1
y[93]=0
y[94]=3
y[95]=8
y[96]=0
y[97]=6
y[98]=0
y[99]=0
y[100]=1
y[101]=0
y[102]=1
y[103]=0
y[104]=0
y[105]=2
y[106]=2
y[107]=0
y[108]=0
y[109]=3
y[110]=0
y[111]=9
y[112]=1
y[113]=9
y[114]=0
y[115]=7
y[116]=6
y[117]=1
y[118]=1
y[119]=13
y[120]=5
y[121]=0
y[122]=1
y[123]=0
y[124]=4
y[125]=4
y[126]=4
y[127]=3
y[128]=13
y[129]=3
y[130]=0
y[131]=5
y[132]=0
y[133]=0
y[134]=11
y[135]=2
y[136]=6
y[137]=10
y[138]=12
y[139]=4
y[140]=1
y[141]=9
y[142]=11
y[143]=0
y[144]=1
y[145]=7
y[146]=10
y[147]=11
y[148]=7
y[149]=1
y[150]=3
y[151]=2
y[152]=1
y[153]=0
y[154]=9
y[155]=8
y[156]=0
y[157]=0
y[158]=2
y[159]=4
y[160]=13
y[161]=6
y[162]=9
y[163]=8
y[164]=6
y[165]=0
y[166]=0
y[167]=4
y[168]=0
y[169]=5
y[170]=0
y[171]=0
y[172]=1
y[173]=13
y[174]=2
y[175]=3
y[176]=5
y[177]=11
y[178]=10
y[179]=9
y[180]=5
y[181]=1
y[182]=2
y[183]=9
y[184]=1
y[185]=5
y[186]=0
y[187]=7
y[188]=8
y[189]=4
y[190]=6
y[191]=0
y[192]=10
y[193]=4
y[194]=7
y[195]=11
y[196]=12
y[197]=7
y[198]=0
y[199]=0
y[200]=9
y[201]=2
y[202]=3
y[203]=2
y[204]=9
y[205]=1
y[206]=12
y[207]=2
y[208]=8
y[209]=2
y[210]=1
y[211]=12
y[212]=10
y[213]=9
