data/solutions/recovery/wellformed/intermediate/binding/wellformed_intermediate_instance84/4.log

Log started (V12.6.3.0) Fri Apr 20 20:43:42 2018

New value for default parallel thread count: 1

Problem '/tmp/tmpwkUhyC.pyomo.lp' read.
Read time = 0.08 sec. (8.05 ticks)

Problem name         : /tmp/tmpwkUhyC.pyomo.lp
Objective sense      : Minimize
Variables            :    3442  [Nneg: 1,  Binary: 3424,  General Integer: 17]
Objective nonzeros   :       1
Linear constraints   :     463  [Less: 230,  Equal: 233]
  Nonzeros           :  594627
  RHS nonzeros       :     215

Variables            : Min LB: 0.000000         Max UB: 1.000000       
Objective nonzeros   : Min   : 1.000000         Max   : 1.000000       
Linear constraints   :
  Nonzeros           : Min   : 1.000000         Max   : 19973.00       
  RHS nonzeros       : Min   : 1.000000         Max   : 1.000000       
Tried aggregator 2 times.
MIP Presolve eliminated 404 rows and 2993 columns.
Aggregator did 14 substitutions.
Reduced MIP has 45 rows, 435 columns, and 882 nonzeros.
Reduced MIP has 434 binaries, 1 generals, 0 SOSs, and 0 indicators.
Presolve time = 0.02 sec. (34.70 ticks)
Found incumbent of value 583792.000000 after 0.04 sec. (48.65 ticks)
Probing time = 0.00 sec. (0.51 ticks)
Tried aggregator 1 time.
Reduced MIP has 45 rows, 435 columns, and 882 nonzeros.
Reduced MIP has 434 binaries, 1 generals, 0 SOSs, and 0 indicators.
Presolve time = 0.00 sec. (0.75 ticks)
Probing time = 0.00 sec. (0.51 ticks)
Clique table members: 31.
MIP emphasis: balance optimality and feasibility.
MIP search method: dynamic search.
Parallel mode: none, using 1 thread.
Root relaxation solution time = 0.00 sec. (0.69 ticks)

        Nodes                                         Cuts/
   Node  Left     Objective  IInf  Best Integer    Best Bound    ItCnt     Gap

*     0+    0                       583792.0000   170791.0000            70.74%
      0     0   170791.0000    12   583792.0000   170791.0000       65   70.74%
*     0+    0                       180192.0000   170791.0000             5.22%
      0     0   170791.0000     9   180192.0000       Cuts: 3       76    5.22%
*     0+    0                       173417.0000   170791.0000             1.51%
      0     0   170791.0000     4   173417.0000      Cuts: 17       85    1.51%
*     0+    0                       170791.0000   170791.0000             0.00%
      0     0        cutoff         170791.0000   170791.0000       85    0.00%
Elapsed time = 0.05 sec. (58.60 ticks, tree = 0.01 MB, solutions = 4)

Cover cuts applied:  2
Mixed integer rounding cuts applied:  8
Zero-half cuts applied:  1
Gomory fractional cuts applied:  5

Root node processing (before b&c):
  Real time             =    0.05 sec. (58.77 ticks)
Sequential b&c:
  Real time             =    0.00 sec. (0.00 ticks)
                          ------------
Total (root+branch&cut) =    0.05 sec. (58.77 ticks)

Solution pool: 4 solutions saved.

MIP - Integer optimal solution:  Objective =  1.7079100000e+05
Solution time =    0.05 sec.  Iterations = 85  Nodes = 0
Deterministic time = 58.78 ticks  (1100.63 ticks/sec)


Incumbent solution written to file '/tmp/tmppDSLSP.cplex.sol'.
